
  32    1
  10

   0   0   5 2 3 4 6 8 
   4   1   3 15 11 5 
   9   3   2 11 5 
   4   7   2 11 5 
   7   4   2 10 7 
   4   2   2 15 7 
   2   1   3 20 13 9 
   5   9   4 20 15 14 12 
   9   5   2 14 12 
   4   6   3 20 19 14 
   8   4   1 12 
   9   3   2 17 16 
  10   3   3 21 19 17 
   5   4   2 18 17 
   3   4   1 16 
   1   3   2 19 18 
   4   1   5 27 26 25 24 22 
   5   2   4 31 27 22 21 
  10   3   4 31 27 25 23 
   8   2   3 27 25 22 
   2   5   3 26 25 23 
   3   5   1 23 
   4   7   3 30 29 28 
   8   9   3 31 29 28 
   1   6   2 29 28 
   6   4   2 29 28 
   1   5   1 30 
   4   4   1 32
   5   2   1 32
  10   1   1 32
   9   5   1 32
   0   0   0 
